NAME : dantzig42.1133.tour
COMMENT : Cost = 381_1133
COMMENT : Found by LKH [Keld Helsgaun] Thu Nov 16 17:24:50 2017
TYPE : TOUR
DIMENSION : 44
TOUR_SECTION
1
4
7
26
27
21
20
19
18
17
22
24
25
8
3
43
23
16
15
14
13
12
10
44
2
5
6
9
11
28
29
30
31
32
33
34
35
36
37
38
39
40
41
42
-1
EOF
